<?xml version = "1.0" encoding="UTF-8" standalone="yes"?>
<CPLEXSolution version="1.2">
 <header
   problemName="IloCplex"
   solutionName="p0"
   solutionIndex="-1"
   objectiveValue="3034142932"
   solutionTypeValue="3"
   solutionTypeString="primal"
   solutionStatusValue="127"
   solutionStatusString="integer feasible solution"
   solutionMethodString="mip"
   primalFeasible="0"
   dualFeasible="0"
   writeLevel="3"/>
 <quality
   epInt="1.0000000000000001e-05"
   epRHS="9.9999999999999995e-07"
   maxIntInfeas="0"
   maxPrimalInfeas="0"
   maxX="1"
   maxSlack="1"/>
 <variables>
  <variable name="w1_1" index="10" value="1"/>
  <variable name="w1_2" index="11" value="1"/>
  <variable name="w1_4" index="13" value="1"/>
  <variable name="w1_6" index="15" value="1"/>
  <variable name="w1_7" index="16" value="1"/>
  <variable name="w2_1" index="19" value="1"/>
  <variable name="w2_2" index="20" value="1"/>
  <variable name="w2_4" index="22" value="1"/>
  <variable name="w2_6" index="24" value="1"/>
  <variable name="w2_7" index="25" value="1"/>
  <variable name="w3_1" index="28" value="1"/>
  <variable name="w3_2" index="29" value="1"/>
  <variable name="w3_4" index="31" value="1"/>
  <variable name="w3_6" index="33" value="1"/>
  <variable name="w3_7" index="34" value="1"/>
  <variable name="w4_1" index="37" value="1"/>
  <variable name="w4_2" index="38" value="1"/>
  <variable name="w4_4" index="40" value="1"/>
  <variable name="w4_6" index="42" value="1"/>
  <variable name="w4_7" index="43" value="1"/>
  <variable name="w5_1" index="46" value="1"/>
  <variable name="w5_2" index="47" value="1"/>
  <variable name="w5_4" index="49" value="1"/>
  <variable name="w5_6" index="51" value="1"/>
  <variable name="w5_7" index="52" value="1"/>
  <variable name="w7_1" index="64" value="1"/>
  <variable name="w7_2" index="65" value="1"/>
  <variable name="w7_4" index="67" value="1"/>
  <variable name="w7_6" index="69" value="1"/>
  <variable name="w7_7" index="70" value="1"/>
  <variable name="w9_1" index="82" value="1"/>
  <variable name="w9_2" index="83" value="1"/>
  <variable name="w9_4" index="85" value="1"/>
  <variable name="w9_6" index="87" value="1"/>
  <variable name="w9_7" index="88" value="1"/>
  <variable name="w11_1" index="100" value="1"/>
  <variable name="w11_2" index="101" value="1"/>
  <variable name="w11_4" index="103" value="1"/>
  <variable name="w11_6" index="105" value="1"/>
  <variable name="w11_7" index="106" value="1"/>
  <variable name="w14_1" index="127" value="1"/>
  <variable name="w14_2" index="128" value="1"/>
  <variable name="w14_4" index="130" value="1"/>
  <variable name="w14_6" index="132" value="1"/>
  <variable name="w14_7" index="133" value="1"/>
  <variable name="w16_1" index="145" value="1"/>
  <variable name="w16_2" index="146" value="1"/>
  <variable name="w16_4" index="148" value="1"/>
  <variable name="w16_6" index="150" value="1"/>
  <variable name="w16_7" index="151" value="1"/>
  <variable name="w18_1" index="163" value="1"/>
  <variable name="w18_2" index="164" value="1"/>
  <variable name="w18_4" index="166" value="1"/>
  <variable name="w18_6" index="168" value="1"/>
  <variable name="w18_7" index="169" value="1"/>
  <variable name="w20_1" index="181" value="1"/>
  <variable name="w20_2" index="182" value="1"/>
  <variable name="w20_4" index="184" value="1"/>
  <variable name="w20_6" index="186" value="1"/>
  <variable name="w20_7" index="187" value="1"/>
  <variable name="w22_1" index="199" value="1"/>
  <variable name="w22_2" index="200" value="1"/>
  <variable name="w22_4" index="202" value="1"/>
  <variable name="w22_6" index="204" value="1"/>
  <variable name="w22_7" index="205" value="1"/>
  <variable name="w23_1" index="208" value="1"/>
  <variable name="w23_2" index="209" value="1"/>
  <variable name="w23_4" index="211" value="1"/>
  <variable name="w23_6" index="213" value="1"/>
  <variable name="w23_7" index="214" value="1"/>
  <variable name="u1" index="226" value="1"/>
  <variable name="u2" index="227" value="1"/>
  <variable name="u4" index="229" value="1"/>
  <variable name="u6" index="231" value="1"/>
  <variable name="u7" index="232" value="1"/>
  <variable name="x0_16" index="250" value="1"/>
  <variable name="x1_2" index="492" value="1"/>
  <variable name="x2_1" index="747" value="1"/>
  <variable name="x3_19" index="1021" value="1"/>
  <variable name="x4_5" index="1263" value="1"/>
  <variable name="x5_6" index="1520" value="1"/>
  <variable name="x6_7" index="1777" value="1"/>
  <variable name="x7_23" index="2049" value="1"/>
  <variable name="x8_24" index="2306" value="1"/>
  <variable name="x9_25" index="2563" value="1"/>
  <variable name="x10_9" index="2803" value="1"/>
  <variable name="x11_27" index="3077" value="1"/>
  <variable name="x12_11" index="3317" value="1"/>
  <variable name="x13_29" index="3591" value="1"/>
  <variable name="x14_13" index="3831" value="1"/>
  <variable name="x15_0" index="4074" value="1"/>
  <variable name="x16_31" index="4361" value="1"/>
  <variable name="x17_18" index="4604" value="1"/>
  <variable name="x18_17" index="4859" value="1"/>
  <variable name="x19_3" index="5101" value="1"/>
  <variable name="x20_4" index="5358" value="1"/>
  <variable name="x21_37" index="5647" value="1"/>
  <variable name="x22_38" index="5904" value="1"/>
  <variable name="x23_22" index="6144" value="1"/>
  <variable name="x24_8" index="6386" value="1"/>
  <variable name="x25_26" index="6660" value="1"/>
  <variable name="x26_10" index="6900" value="1"/>
  <variable name="x27_28" index="7174" value="1"/>
  <variable name="x28_12" index="7414" value="1"/>
  <variable name="x29_30" index="7688" value="1"/>
  <variable name="x30_14" index="7928" value="1"/>
  <variable name="x31_15" index="8185" value="1"/>
  <variable name="x32_48" index="8474" value="1"/>
  <variable name="x33_32" index="8714" value="1"/>
  <variable name="x34_33" index="8971" value="1"/>
  <variable name="x35_51" index="9245" value="1"/>
  <variable name="x36_20" index="9470" value="1"/>
  <variable name="x37_21" index="9727" value="1"/>
  <variable name="x38_39" index="10001" value="1"/>
  <variable name="x39_55" index="10273" value="1"/>
  <variable name="x40_56" index="10530" value="1"/>
  <variable name="x41_40" index="10770" value="1"/>
  <variable name="x42_58" index="11044" value="1"/>
  <variable name="x43_42" index="11284" value="1"/>
  <variable name="x44_60" index="11558" value="1"/>
  <variable name="x45_44" index="11798" value="1"/>
  <variable name="x46_47" index="12057" value="1"/>
  <variable name="x47_46" index="12312" value="1"/>
  <variable name="x48_64" index="12586" value="1"/>
  <variable name="x49_50" index="12828" value="1"/>
  <variable name="x50_34" index="13068" value="1"/>
  <variable name="x51_35" index="13325" value="1"/>
  <variable name="x52_36" index="13582" value="1"/>
  <variable name="x53_69" index="13871" value="1"/>
  <variable name="x54_53" index="14111" value="1"/>
  <variable name="x55_54" index="14368" value="1"/>
  <variable name="x56_72" index="14642" value="1"/>
  <variable name="x57_41" index="14867" value="1"/>
  <variable name="x58_57" index="15139" value="1"/>
  <variable name="x59_43" index="15381" value="1"/>
  <variable name="x60_61" index="15655" value="1"/>
  <variable name="x61_45" index="15895" value="1"/>
  <variable name="x62_78" index="16184" value="1"/>
  <variable name="x63_79" index="16441" value="1"/>
  <variable name="x64_65" index="16683" value="1"/>
  <variable name="x65_49" index="16923" value="1"/>
  <variable name="x66_67" index="17197" value="1"/>
  <variable name="x67_68" index="17454" value="1"/>
  <variable name="x68_52" index="17694" value="1"/>
  <variable name="x69_70" index="17968" value="1"/>
  <variable name="x70_86" index="18240" value="1"/>
  <variable name="x71_87" index="18497" value="1"/>
  <variable name="x72_88" index="18754" value="1"/>
  <variable name="x73_74" index="18996" value="1"/>
  <variable name="x74_75" index="19253" value="1"/>
  <variable name="x75_59" index="19493" value="1"/>
  <variable name="x76_77" index="19767" value="1"/>
  <variable name="x77_76" index="20022" value="1"/>
  <variable name="x78_62" index="20264" value="1"/>
  <variable name="x79_63" index="20521" value="1"/>
  <variable name="x80_81" index="20795" value="1"/>
  <variable name="x81_80" index="21050" value="1"/>
  <variable name="x82_66" index="21292" value="1"/>
  <variable name="x83_82" index="21564" value="1"/>
  <variable name="x84_83" index="21821" value="1"/>
  <variable name="x85_84" index="22078" value="1"/>
  <variable name="x86_85" index="22335" value="1"/>
  <variable name="x87_71" index="22577" value="1"/>
  <variable name="x88_89" index="22851" value="1"/>
  <variable name="x89_73" index="23091" value="1"/>
  <variable name="x90_91" index="23365" value="1"/>
  <variable name="x91_90" index="23620" value="1"/>
  <variable name="x92_92" index="23878" value="1"/>
  <variable name="x93_93" index="24135" value="1"/>
  <variable name="x94_94" index="24392" value="1"/>
  <variable name="x95_95" index="24649" value="1"/>
  <variable name="x96_96" index="24906" value="1"/>
  <variable name="x97_98" index="25164" value="1"/>
  <variable name="x98_97" index="25419" value="1"/>
  <variable name="x99_115" index="25693" value="1"/>
  <variable name="x100_99" index="25933" value="1"/>
  <variable name="x101_101" index="26191" value="1"/>
  <variable name="x102_102" index="26448" value="1"/>
  <variable name="x103_103" index="26705" value="1"/>
  <variable name="x104_104" index="26962" value="1"/>
  <variable name="x105_105" index="27219" value="1"/>
  <variable name="x106_106" index="27476" value="1"/>
  <variable name="x107_107" index="27733" value="1"/>
  <variable name="x108_108" index="27990" value="1"/>
  <variable name="x109_109" index="28247" value="1"/>
  <variable name="x110_110" index="28504" value="1"/>
  <variable name="x111_111" index="28761" value="1"/>
  <variable name="x112_112" index="29018" value="1"/>
  <variable name="x113_113" index="29275" value="1"/>
  <variable name="x114_130" index="29548" value="1"/>
  <variable name="x115_116" index="29790" value="1"/>
  <variable name="x116_100" index="30030" value="1"/>
  <variable name="x117_118" index="30304" value="1"/>
  <variable name="x118_117" index="30559" value="1"/>
  <variable name="x119_119" index="30817" value="1"/>
  <variable name="x120_120" index="31074" value="1"/>
  <variable name="x121_121" index="31331" value="1"/>
  <variable name="x122_122" index="31588" value="1"/>
  <variable name="x123_123" index="31845" value="1"/>
  <variable name="x124_124" index="32102" value="1"/>
  <variable name="x125_125" index="32359" value="1"/>
  <variable name="x126_126" index="32616" value="1"/>
  <variable name="x127_127" index="32873" value="1"/>
  <variable name="x128_128" index="33130" value="1"/>
  <variable name="x129_129" index="33387" value="1"/>
  <variable name="x130_114" index="33628" value="1"/>
  <variable name="x131_131" index="33901" value="1"/>
  <variable name="x132_148" index="34174" value="1"/>
  <variable name="x133_132" index="34414" value="1"/>
  <variable name="x134_150" index="34688" value="1"/>
  <variable name="x135_135" index="34929" value="1"/>
  <variable name="x136_136" index="35186" value="1"/>
  <variable name="x137_153" index="35459" value="1"/>
  <variable name="x138_139" index="35701" value="1"/>
  <variable name="x139_138" index="35956" value="1"/>
  <variable name="x140_140" index="36214" value="1"/>
  <variable name="x141_141" index="36471" value="1"/>
  <variable name="x142_142" index="36728" value="1"/>
  <variable name="x143_143" index="36985" value="1"/>
  <variable name="x144_144" index="37242" value="1"/>
  <variable name="x145_145" index="37499" value="1"/>
  <variable name="x146_146" index="37756" value="1"/>
  <variable name="x147_147" index="38013" value="1"/>
  <variable name="x148_149" index="38271" value="1"/>
  <variable name="x149_133" index="38511" value="1"/>
  <variable name="x150_134" index="38768" value="1"/>
  <variable name="x151_151" index="39041" value="1"/>
  <variable name="x152_168" index="39314" value="1"/>
  <variable name="x153_137" index="39539" value="1"/>
  <variable name="x154_154" index="39812" value="1"/>
  <variable name="x155_155" index="40069" value="1"/>
  <variable name="x156_156" index="40326" value="1"/>
  <variable name="x157_157" index="40583" value="1"/>
  <variable name="x158_158" index="40840" value="1"/>
  <variable name="x159_159" index="41097" value="1"/>
  <variable name="x160_160" index="41354" value="1"/>
  <variable name="x161_161" index="41611" value="1"/>
  <variable name="x162_162" index="41868" value="1"/>
  <variable name="x163_163" index="42125" value="1"/>
  <variable name="x164_164" index="42382" value="1"/>
  <variable name="x165_165" index="42639" value="1"/>
  <variable name="x166_166" index="42896" value="1"/>
  <variable name="x167_183" index="43169" value="1"/>
  <variable name="x168_152" index="43394" value="1"/>
  <variable name="x169_169" index="43667" value="1"/>
  <variable name="x170_170" index="43924" value="1"/>
  <variable name="x171_171" index="44181" value="1"/>
  <variable name="x172_172" index="44438" value="1"/>
  <variable name="x173_173" index="44695" value="1"/>
  <variable name="x174_175" index="44953" value="1"/>
  <variable name="x175_174" index="45208" value="1"/>
  <variable name="x176_191" index="45481" value="1"/>
  <variable name="x177_177" index="45723" value="1"/>
  <variable name="x178_178" index="45980" value="1"/>
  <variable name="x179_179" index="46237" value="1"/>
  <variable name="x180_180" index="46494" value="1"/>
  <variable name="x181_181" index="46751" value="1"/>
  <variable name="x182_182" index="47008" value="1"/>
  <variable name="x183_167" index="47249" value="1"/>
  <variable name="x184_184" index="47522" value="1"/>
  <variable name="x185_185" index="47779" value="1"/>
  <variable name="x186_187" index="48037" value="1"/>
  <variable name="x187_186" index="48292" value="1"/>
  <variable name="x188_188" index="48550" value="1"/>
  <variable name="x189_189" index="48807" value="1"/>
  <variable name="x190_190" index="49064" value="1"/>
  <variable name="x191_176" index="49306" value="1"/>
  <variable name="x192_192" index="49578" value="1"/>
  <variable name="x193_193" index="49835" value="1"/>
  <variable name="x194_194" index="50092" value="1"/>
  <variable name="x195_196" index="50350" value="1"/>
  <variable name="x196_195" index="50605" value="1"/>
  <variable name="x197_197" index="50863" value="1"/>
  <variable name="x198_198" index="51120" value="1"/>
  <variable name="x199_199" index="51377" value="1"/>
  <variable name="x200_200" index="51634" value="1"/>
  <variable name="x201_201" index="51891" value="1"/>
  <variable name="x202_202" index="52148" value="1"/>
  <variable name="x203_203" index="52405" value="1"/>
  <variable name="x204_204" index="52662" value="1"/>
  <variable name="x205_205" index="52919" value="1"/>
  <variable name="x206_206" index="53176" value="1"/>
  <variable name="x207_207" index="53433" value="1"/>
  <variable name="x208_208" index="53690" value="1"/>
  <variable name="x209_209" index="53947" value="1"/>
  <variable name="x210_210" index="54204" value="1"/>
  <variable name="x211_211" index="54461" value="1"/>
  <variable name="x212_213" index="54719" value="1"/>
  <variable name="x213_229" index="54991" value="1"/>
  <variable name="x214_214" index="55232" value="1"/>
  <variable name="x215_215" index="55489" value="1"/>
  <variable name="x216_216" index="55746" value="1"/>
  <variable name="x217_217" index="56003" value="1"/>
  <variable name="x218_218" index="56260" value="1"/>
  <variable name="x219_219" index="56517" value="1"/>
  <variable name="x220_220" index="56774" value="1"/>
  <variable name="x221_237" index="57047" value="1"/>
  <variable name="x222_222" index="57288" value="1"/>
  <variable name="x223_223" index="57545" value="1"/>
  <variable name="x224_224" index="57802" value="1"/>
  <variable name="x225_225" index="58059" value="1"/>
  <variable name="x226_226" index="58316" value="1"/>
  <variable name="x227_227" index="58573" value="1"/>
  <variable name="x228_212" index="58814" value="1"/>
  <variable name="x229_228" index="59086" value="1"/>
  <variable name="x230_231" index="59345" value="1"/>
  <variable name="x231_230" index="59600" value="1"/>
  <variable name="x232_232" index="59858" value="1"/>
  <variable name="x233_233" index="60115" value="1"/>
  <variable name="x234_234" index="60372" value="1"/>
  <variable name="x235_235" index="60629" value="1"/>
  <variable name="x236_236" index="60886" value="1"/>
  <variable name="x237_221" index="61127" value="1"/>
  <variable name="x238_238" index="61400" value="1"/>
  <variable name="x239_239" index="61657" value="1"/>
  <variable name="x240_240" index="61914" value="1"/>
  <variable name="x241_241" index="62171" value="1"/>
  <variable name="x242_242" index="62428" value="1"/>
  <variable name="x243_243" index="62685" value="1"/>
  <variable name="x244_244" index="62942" value="1"/>
  <variable name="x245_245" index="63199" value="1"/>
  <variable name="x246_246" index="63456" value="1"/>
  <variable name="x247_247" index="63713" value="1"/>
  <variable name="x248_248" index="63970" value="1"/>
  <variable name="x249_249" index="64227" value="1"/>
  <variable name="x250_250" index="64484" value="1"/>
  <variable name="x251_251" index="64741" value="1"/>
  <variable name="x252_253" index="64999" value="1"/>
  <variable name="x253_252" index="65254" value="1"/>
  <variable name="x254_254" index="65512" value="1"/>
  <variable name="x255_255" index="65769" value="1"/>
  <variable name="k1" index="65771" value="1"/>
  <variable name="k2" index="65772" value="1"/>
  <variable name="k3" index="65773" value="1"/>
  <variable name="k4" index="65774" value="1"/>
  <variable name="k5" index="65775" value="1"/>
  <variable name="k7" index="65777" value="1"/>
  <variable name="k9" index="65779" value="1"/>
  <variable name="k11" index="65781" value="1"/>
  <variable name="k14" index="65784" value="1"/>
  <variable name="k16" index="65786" value="1"/>
  <variable name="k18" index="65788" value="1"/>
  <variable name="k20" index="65790" value="1"/>
  <variable name="k22" index="65792" value="1"/>
  <variable name="k23" index="65793" value="1"/>
 </variables>
</CPLEXSolution>
